
        $ From http://www.csplib.org/Problems/prob009/data/helmut.pdf
        $ Problem number 52
        $ Sequence length : 25
        language ESSENCE' 1.0
        letting sizemaster be 216
        letting sizes be sequence(1,2,3,4,5,7,8,11,16,17,18,19,25,30,32,33,39,41,45,49,54,59,64,103,113)
        